     Program PHONON v.7.3 starts on 21May2025 at 11: 7: 2

     Reading input from ph.in

     Reading xml data from directory:

     ./pb.save/

     K-points division:     npool     =       4
     R & G space division:  proc/nbgrp/npool/nimage =       8
     Subspace diagonalization in iterative solution of the eigenvalue problem:
     a serial algorithm will be used

     IMPORTANT: XC functional enforced from input :
     Exchange-correlation= PZ
                           (   1   1   0   0   0   0   0)
     Any further DFT definition will be discarded
     Please, verify this is what you really want

     Using Slab Decomposition

     Reading collected, re-writing distributed wavefunctions in ./

     Dynamical matrices for ( 3, 3, 3)  uniform grid of q-points
     (   4 q-points):
       N         xq(1)         xq(2)         xq(3)
       1   0.000000000   0.000000000   0.000000000
       2  -0.333333333   0.333333333  -0.333333333
       3   0.000000000   0.666666667   0.000000000
       4   0.666666667  -0.000000000   0.666666667

     Number and degeneracy of irreps per q-point
       N         xq(1)         xq(2)         xq(3)   N irreps
       1   0.000000000   0.000000000   0.000000000       1
        3
       2  -0.333333333   0.333333333  -0.333333333       2
        1   2
       3   0.000000000   0.666666667   0.000000000       2
        1   2
       4   0.666666667  -0.000000000   0.666666667       3
     No degeneracy

     Saving dvscf to file. Distribute only q points, not irreducible representations.

     Calculation of q =    0.0000000   0.0000000   0.0000000

     --

     bravais-lattice index     =            2
     lattice parameter (alat)  =       9.2700  a.u.
     unit-cell volume          =     199.1495 (a.u.)^3
     number of atoms/cell      =            1
     number of atomic types    =            1
     kinetic-energy cut-off    =      30.0000  Ry
     charge density cut-off    =     120.0000  Ry
     convergence threshold     =      1.0E-17
     beta                      =       0.7000
     number of iterations used =            4
     Exchange-correlation= PZ
                           (   1   1   0   0   0   0   0)

     celldm(1)=    9.27000  celldm(2)=    0.00000  celldm(3)=    0.00000
     celldm(4)=    0.00000  celldm(5)=    0.00000  celldm(6)=    0.00000

     crystal axes: (cart. coord. in units of alat)
               a(1) = ( -0.5000  0.0000  0.5000 )
               a(2) = (  0.0000  0.5000  0.5000 )
               a(3) = ( -0.5000  0.5000  0.0000 )

     reciprocal axes: (cart. coord. in units 2 pi/alat)
               b(1) = ( -1.0000 -1.0000  1.0000 )
               b(2) = (  1.0000  1.0000  1.0000 )
               b(3) = ( -1.0000  1.0000 -1.0000 )

     Atoms inside the unit cell:

     Cartesian axes

     site n.  atom      mass           positions (alat units)
        1  Pb    207.2000   tau(    1) = (    0.00000    0.00000    0.00000  )

     Computing dynamical matrix for
                    q = (   0.0000000   0.0000000   0.0000000 )

     49 Sym.Ops. (with q -> -q+G )

     G cutoff =  261.2047  (    560 G-vectors)     FFT grid: ( 24, 24, 24)

     number of k points=    72  Methfessel-Paxton smearing, width (Ry)=  0.0250

     PseudoPot. # 1 for Pb read from file:
     ../pseudo/pb_s.UPF
     MD5 check sum: 7774f596943a2055f0d8d19eea6f2ae8
     Pseudo is Norm-conserving, Zval = 14.0
     Generated using "atomic" code by A. Dal Corso  (Quantum ESPRESSO distribution)
     Using radial grid of 1281 points,  2 beta functions with:
                l(1) =   2
                l(2) =   1

     Mode symmetry, O_h (m-3m)  point group:

     Atomic displacements:
     There are    1 irreducible representations

     Representation     1      3 modes -  To be done

     Alpha used in Ewald sum =   1.2000

     Representation #   1 modes #   1   2   3

     Self-consistent Calculation

     Pert. #  1: Fermi energy shift (Ry) =    -8.6165E-27    -1.0971E-36
     Pert. #  2: Fermi energy shift (Ry) =    -1.9818E-25     3.2444E-36
     Pert. #  3: Fermi energy shift (Ry) =    -1.7233E-26     1.4733E-36

      thresh= 1.000E-02 alpha_mix =  0.700 |ddv_scf|^2 =  1.380E-05

[...]

     Pert. #  1: Fermi energy shift (Ry) =     1.7233E-26     4.2091E-41
     Pert. #  2: Fermi energy shift (Ry) =     1.8095E-25    -4.3048E-42
     Pert. #  3: Fermi energy shift (Ry) =    -4.3082E-27    -1.8176E-41

[...]

     End of self-consistent calculation

     Convergence has been achieved

     Number of q in the star =    1
     List of q in the star:
          1   0.000000000   0.000000000   0.000000000

     Diagonalizing the dynamical matrix

     q = (    0.000000000   0.000000000   0.000000000 )

     freq (    1) =       0.057219 [THz] =       1.908606 [cm-1]
     freq (    2) =       0.057219 [THz] =       1.908606 [cm-1]
     freq (    3) =       0.057219 [THz] =       1.908606 [cm-1]

     Mode symmetry, O_h (m-3m)  point group:

     freq (   1-   3) =          1.9  [cm-1]   --> T_1u G_15  G_4- I

[...]

     Title:
     --

     bravais-lattice index     =            2
     lattice parameter (alat)  =       9.2700  a.u.
     unit-cell volume          =     199.1495 (a.u.)^3
     number of atoms/cell      =            1
     number of atomic types    =            1
     number of electrons       =        14.00
     number of Kohn-Sham states=           11
     kinetic-energy cutoff     =      30.0000  Ry
     charge density cutoff     =     120.0000  Ry
     Exchange-correlation= PZ
                           (   1   1   0   0   0   0   0)

[...]

     atomic species   valence    mass     pseudopotential
     Pb               14.00   207.20000     Pb( 1.00)

     48 Sym. Ops., with inversion, found

[...]

     site n.     atom                  positions (alat units)
         1        Pb     tau(   1) = (   0.0000000   0.0000000   0.0000000  )

[...]

     Number of k-points >= 100: set verbosity='high' to print them.

     The potential is recalculated from file :
     ./_ph0/pb.q_2/pb.save/charge-density

     Starting wfcs are    9 atomic +    2 random wfcs

     Band Structure Calculation
     Davidson diagonalization with overlap

     ethr =  7.14E-11,  avg # of iterations = 15.6

     End of band structure calculation

     Number of k-points >= 100: set verbosity='high' to print the bands.

     the Fermi energy is    11.3919 ev

     Writing config to output data dir ./_ph0/pb.q_2/pb.save/ :
     XML data file

[...]

      6 Sym.Ops. (no q -> -q+G )

[...]

     Mode symmetry, C_3v (3m)   point group:

[...]

     Message from routine init_vloc:
     Interpolation table for Vloc re-allocated

[...]

     Representation #   1 mode #   1

[...]

     Mode symmetry, C_3v (3m)   point group:

     freq (   1-   2) =         22.6  [cm-1]   --> E    L_3
     freq (   3-   3) =         54.3  [cm-1]   --> A_1  L_1

[...]

     Mode symmetry, C_4v (4mm)  point group:

[...]

     Representation #   2 modes #   2   3

[...]

     Mode symmetry, C_4v (4mm)  point group:

     freq (   1-   2) =         26.7  [cm-1]   --> E    G_5 D_5
     freq (   3-   3) =         66.0  [cm-1]   --> A_1  G_1 D_1

     Calculation of q =    0.6666667  -0.0000000   0.6666667

     Using Slab Decomposition

     Title:
     --

     bravais-lattice index     =            2
     lattice parameter (alat)  =       9.2700  a.u.
     unit-cell volume          =     199.1495 (a.u.)^3
     number of atoms/cell      =            1
     number of atomic types    =            1
     number of electrons       =        14.00
     number of Kohn-Sham states=           11
     kinetic-energy cutoff     =      30.0000  Ry
     charge density cutoff     =     120.0000  Ry
     Exchange-correlation= PZ
                           (   1   1   0   0   0   0   0)

[...]

     atomic species   valence    mass     pseudopotential
     Pb               14.00   207.20000     Pb( 1.00)

     48 Sym. Ops., with inversion, found

[...]

     site n.     atom                  positions (alat units)
         1        Pb     tau(   1) = (   0.0000000   0.0000000   0.0000000  )

[...]

     Number of k-points >= 100: set verbosity='high' to print them.

     The potential is recalculated from file :
     ./_ph0/pb.q_4/pb.save/charge-density

     Starting wfcs are    9 atomic +    2 random wfcs

     Band Structure Calculation
     Davidson diagonalization with overlap

     ethr =  7.14E-11,  avg # of iterations = 15.4

     End of band structure calculation

     Number of k-points >= 100: set verbosity='high' to print the bands.

     the Fermi energy is    11.3919 ev

     Writing config to output data dir ./_ph0/pb.q_4/pb.save/ :
     XML data file

     --

     bravais-lattice index     =            2
     lattice parameter (alat)  =       9.2700  a.u.
     unit-cell volume          =     199.1495 (a.u.)^3
     number of atoms/cell      =            1
     number of atomic types    =            1
     kinetic-energy cut-off    =      30.0000  Ry
     charge density cut-off    =     120.0000  Ry
     convergence threshold     =      1.0E-17
     beta                      =       0.7000
     number of iterations used =            4
     Exchange-correlation= PZ
                           (   1   1   0   0   0   0   0)

     celldm(1)=    9.27000  celldm(2)=    0.00000  celldm(3)=    0.00000
     celldm(4)=    0.00000  celldm(5)=    0.00000  celldm(6)=    0.00000

     crystal axes: (cart. coord. in units of alat)
               a(1) = ( -0.5000  0.0000  0.5000 )
               a(2) = (  0.0000  0.5000  0.5000 )
               a(3) = ( -0.5000  0.5000  0.0000 )

     reciprocal axes: (cart. coord. in units 2 pi/alat)
               b(1) = ( -1.0000 -1.0000  1.0000 )
               b(2) = (  1.0000  1.0000  1.0000 )
               b(3) = ( -1.0000  1.0000 -1.0000 )

     Atoms inside the unit cell:

     Cartesian axes

     site n.  atom      mass           positions (alat units)
        1  Pb    207.2000   tau(    1) = (    0.00000    0.00000    0.00000  )

     Computing dynamical matrix for
                    q = (   0.6666667  -0.0000000   0.6666667 )

      4 Sym.Ops. (no q -> -q+G )

     G cutoff =  261.2047  (    560 G-vectors)     FFT grid: ( 24, 24, 24)

     number of k points=  1020  Methfessel-Paxton smearing, width (Ry)=  0.0250

     PseudoPot. # 1 for Pb read from file:
     ../pseudo/pb_s.UPF
     MD5 check sum: 7774f596943a2055f0d8d19eea6f2ae8
     Pseudo is Norm-conserving, Zval = 14.0
     Generated using "atomic" code by A. Dal Corso  (Quantum ESPRESSO distribution)
     Using radial grid of 1281 points,  2 beta functions with:
                l(1) =   2
                l(2) =   1

     Mode symmetry, C_2v (mm2)  point group:

     Atomic displacements:
     There are    3 irreducible representations

[...]

     Representation     3      1 modes -  To be done

     Alpha used in Ewald sum =   1.2000

[...]

     Representation #   3 mode #   3

     Self-consistent Calculation

[...]

      thresh= 3.648E-10 alpha_mix =  0.700 |ddv_scf|^2 =  1.661E-19

     End of self-consistent calculation

     Convergence has been achieved

     Number of q in the star =   12
     List of q in the star:
          1   0.666666667   0.000000000   0.666666667
          2   0.666666667   0.000000000  -0.666666667
          3  -0.666666667   0.000000000  -0.666666667
          4  -0.666666667   0.000000000   0.666666667
          5   0.000000000  -0.666666667   0.666666667
          6  -0.666666667   0.666666667   0.000000000
          7  -0.666666667  -0.666666667   0.000000000
          8   0.666666667   0.666666667   0.000000000
          9   0.666666667  -0.666666667   0.000000000
         10   0.000000000   0.666666667   0.666666667
         11   0.000000000   0.666666667  -0.666666667
         12   0.000000000  -0.666666667  -0.666666667

     Diagonalizing the dynamical matrix

     q = (    0.666666667  -0.000000000   0.666666667 )

     freq (    1) =       1.249594 [THz] =      41.681970 [cm-1]
     freq (    2) =       1.719106 [THz] =      57.343211 [cm-1]
     freq (    3) =       1.767733 [THz] =      58.965210 [cm-1]

     Mode symmetry, C_2v (mm2)  point group:

     freq (   1-   1) =         41.7  [cm-1]   --> B_1  D_3  S_3
     freq (   2-   2) =         57.3  [cm-1]   --> A_1  D_1  S_1
     freq (   3-   3) =         59.0  [cm-1]   --> B_2  D_4  S_4

     General routines

     Parallel routines

     INITIALIZATION:

     DYNAMICAL MATRIX:

                                        0.00s GPU  (    8673 calls)

                                        0.00s GPU  (     933 calls)

      General routines

      Additional routines
                                        0.00s GPU  (  108393 calls)
                                        0.00s GPU  (  108393 calls)

   This run was terminated on:  11: 7:40  21May2025

   JOB DONE.